1757390
20,2,29,24,28,59,22,48,4,39,55,31,41,11,0,53,12,46,19,3,47,1,26,16,8,57,14,7,35,58,15,62,23,60,40,5,63,66,37,6,42,45,33,54,25,65,10,18,64,44,67,34,50,38,61,36,52,49,27,43,13,51,32,56,17,9,21,30